53706
53, 34, 54, 47, 30, 4, 18, 12, 9, 14, 2, 52, 25, 31, 11, 45, 42, 33, 27, 1, 36, 46, 39, 15, 16, 10, 22, 29, 21, 23, 49, 26, 55, 28, 6, 3, 43, 13, 51, 40, 7, 37, 5, 35, 24, 20, 50, 38, 8, 44, 32, 41, 19, 48, 17
